AES/1_3_4/ssaes_r1-20_c3_rw1_e4_f0_k1-20_aes_min_box_aes_mc_bidirectional/ExperimentMinisat_r17_k6cnf_2011-10-29-153958/Result
WARNING: for repeatability, setting FPU to use double precision
============================[ Problem Statistics ]=============================
|                                                                             |
|  Number of variables:           988                                         |
|  Number of clauses:            3992                                         |
|  Parse time:                   0.00 s                                       |
|  Eliminated clauses:           0.01 Mb                                      |
|  Simplification time:          0.00 s                                       |
|                                                                             |
=============================[ Search Statistics ]==============================
| Conflicts  |          ORIGINAL         |          LEARNT          | Progress |
|            |    Vars  Clauses Literals |    Limit  Clauses Lit/Cl |          |
================================================================================
|        100 |     680     3104    10376 |     1138      100      9 |  9.312 % |
|        250 |     680     3104    10376 |     1251      250     11 |  9.312 % |
|        475 |     680     3104    10376 |     1377      475     11 |  9.312 % |
|        812 |     680     3104    10376 |     1514      812     11 |  9.312 % |
|       1318 |     680     3104    10376 |     1666     1318     11 |  9.312 % |
===============================================================================
restarts              : 10
conflicts             : 1431           (49353 /sec)
decisions             : 2714           (0.00 % random) (93602 /sec)
propagations          : 104618         (3608139 /sec)
conflict literals     : 16294          (14.31 % deleted)
Memory used           : 8.00 MB
CPU time              : 0.028995 s

SATISFIABLE
